Medium-instances_NetworkFacilityLocation/2023-03-27_20hr-25min-09sec/Nodes30_Arcs55_LocNodes22/Formulation-2Instance-5.lp
\ Model LocPrice
\ LP format - for model browsing. Use MPS format to capture full model detail.
Maximize
  - 168 x[1] - 194 x[2] - 176 x[4] - 198 x[5] - 169 x[6] - 187 x[7]
   - 188 x[10] - 175 x[11] - 168 x[12] - 153 x[13] - 162 x[14] - 193 x[15]
   - 172 x[16] - 199 x[17] - 190 x[20] - 156 x[22] - 176 x[23] - 167 x[24]
   - 183 x[25] - 166 x[26] - 180 x[27] - 165 x[29] - 3.963344336518717 Q[1]
   - 3.778012612660411 Q[2] - 4.593882648685113 Q[4]
   - 3.538027406034633 Q[5] - 4.626269975389833 Q[6]
   - 3.715356004461556 Q[7] - 3.66282620538058 Q[10]
   - 4.839269962729889 Q[11] - 4.740146704890879 Q[12]
   - 4.080768310073182 Q[13] - 4.650752172476237 Q[14]
   - 4.733925741133431 Q[15] - 4.53888192933645 Q[16]
   - 4.171706800907038 Q[17] - 4.475928335084442 Q[20]
   - 3.110271256439843 Q[22] - 3.654452891966922 Q[23]
   - 4.042941348468245 Q[24] - 3.247147017184409 Q[25]
   - 3.415159927022541 Q[26] - 3.360882736062431 Q[27]
   - 3.479946814304318 Q[29] - 0.5569380415863143 f[2,1]
   - 1.668549004521144 f[3,2] - 1.289775182139923 f[4,1]
   - 2.894888761528288 f[5,2] - 1.385233573883955 f[6,3]
   - 2.852869954660225 f[7,6] - 0.5606335780701303 f[8,1]
   - 2.555281352827863 f[9,2] - 1.931465577173097 f[10,5]
   - 2.584569640616558 f[11,3] - 2.119205521569659 f[12,5]
   - 1.870197507598803 f[13,5] - 0.5477339875371416 f[14,1]
   - 0.271894619855671 f[15,1] - 0.1869222262078416 f[16,2]
   - 0.4419576083843072 f[17,11] - 0.6874147421354123 f[18,17]
   - 0.7187925269939575 f[19,17] - 0.6464468837593789 f[20,14]
   - 1.343485014686038 f[21,19] - 1.949373649849167 f[22,10]
   - 2.602986676572123 f[23,13] - 2.70958568575119 f[24,15]
   - 0.534785313908701 f[25,10] - 2.889480157277887 f[26,7]
   - 1.940827682077964 f[27,19] - 0.9213822668776203 f[28,9]
   - 2.303225870380107 f[29,16] - 0.7748656571748366 f[30,3]
   - 1.117058524897847 f[7,13] - 2.072829699554469 f[6,17]
   - 1.725859462220926 f[12,15] - 2.168965342595241 f[21,23]
   - 0.5005424592603068 f[30,27] - 0.0153143365084074 f[24,1]
   - 2.322638007927889 f[3,20] - 2.0890540611622 f[16,25]
   - 1.08256602804279 f[13,7] - 2.617112368341398 f[22,2]
   - 2.792058594558643 f[14,5] - 1.10963218676 f[30,28]
   - 2.807613377888384 f[28,13] - 2.513980723216157 f[2,5]
   - 1.353111526604287 f[9,27] - 2.771201452887653 f[2,17]
   - 2.990899431735659 f[7,1] - 1.144906821450098 f[9,19]
   - 0.5591221427780355 f[17,12] - 0.4733769574189216 f[16,15]
   - 1.016468276130991 f[22,5] - 2.909342921181914 f[11,8]
   - 0.6089979593573277 f[13,23] - 1.871430600056099 f[14,30]
   - 0.8748879780599201 f[15,13] - 2.62811022283311 f[12,23] + 1347 D[1]
   + 1387 D[4] + 1343 D[5] + 1417 D[6] + 1488 D[7] + 1313 D[10]
   + 1456 D[12] + 1397 D[14] + 1454 D[17] + 1305 D[22] + 1474 D[25]
   + 1345 D[26] + 1340 D[27] + 1374 D[29] + 1348 D[30]
   - 1.67424372187271 S[1] - 1.295113953184072 S[2]
   - 1.550736458975634 S[3] - 1.087754352638233 S[5]
   - 1.908836289838496 S[6] - 1.08292651394214 S[8]
   - 1.755070672244746 S[9] - 1.258422697555548 S[14]
   - 1.226865779600784 S[16] - 1.973823112496012 S[21]
   - 1.16248119714228 S[22] - 1.7818647922346 S[23]
   - 1.540244220466521 S[24] - 1.298962271493988 S[25]
   - 1.140384303468987 S[30] + [ - 1.485239090030832 f[2,1] ^2
   - 1.158620368521566 f[3,2] ^2 - 3.703053375059209 f[4,1] ^2
   - 0.0989792151789137 f[5,2] ^2 - 2.261960622653823 f[6,3] ^2
   - 2.529736198843849 f[7,6] ^2 - 2.760566817030339 f[8,1] ^2
   - 1.269513981860748 f[9,2] ^2 - 3.94729818438112 f[10,5] ^2
   - 2.406096247868194 f[11,3] ^2 - 2.813535197025558 f[12,5] ^2
   - 0.2564172006319589 f[13,5] ^2 - 1.530125579551272 f[14,1] ^2
   - 0.9673913260324034 f[15,1] ^2 - 3.519063954811167 f[16,2] ^2
   - 1.43598707665428 f[17,11] ^2 - 0.9412574284623316 f[18,17] ^2
   - 3.380223976444614 f[19,17] ^2 - 0.7341717889543293 f[20,14] ^2
   - 1.577500980467362 f[21,19] ^2 - 3.652615525863502 f[22,10] ^2
   - 0.0983333310717174 f[23,13] ^2 - 0.6181945569387906 f[24,15] ^2
   - 1.993491940560266 f[25,10] ^2 - 1.814801169906625 f[26,7] ^2
   - 3.893050640454897 f[27,19] ^2 - 3.575557436912352 f[28,9] ^2
   - 2.59045089085624 f[29,16] ^2 - 0.1244146122638079 f[30,3] ^2
   - 2.800118387333542 f[7,13] ^2 - 2.891821037377562 f[6,17] ^2
   - 2.70305607160154 f[12,15] ^2 - 3.039794309597713 f[21,23] ^2
   - 3.244123964163387 f[30,27] ^2 - 0.5006315299415531 f[24,1] ^2
   - 2.422080708693323 f[3,20] ^2 - 2.663272842063753 f[16,25] ^2
   - 0.4050524243998463 f[13,7] ^2 - 3.197442811213471 f[22,2] ^2
   - 3.777341894975315 f[14,5] ^2 - 1.705133456344723 f[30,28] ^2
   - 1.686082889514128 f[28,13] ^2 - 3.244915864132965 f[2,5] ^2
   - 1.055815568339633 f[9,27] ^2 - 0.0952057180556145 f[2,17] ^2
   - 3.739130449601927 f[7,1] ^2 - 1.675186757137687 f[9,19] ^2
   - 2.684435829586363 f[17,12] ^2 - 2.159965097411397 f[16,15] ^2
   - 0.2178381843113688 f[22,5] ^2 - 2.928443094201143 f[11,8] ^2
   - 0.8972809493589664 f[13,23] ^2 - 0.1089614225082665 f[14,30] ^2
   - 0.2500131066183169 f[15,13] ^2 - 3.197573584076104 f[12,23] ^2
   - 6.188854389742851 D[1] ^2 - 7.257496491313375 D[4] ^2
   - 7.926131742935107 D[5] ^2 - 6.369845546154149 D[6] ^2
   - 6.409962167935151 D[7] ^2 - 6.993750215110105 D[10] ^2
   - 7.942176987978196 D[12] ^2 - 7.255904811503118 D[14] ^2
   - 7.47890494548737 D[17] ^2 - 7.092626579665845 D[22] ^2
   - 7.513135866087639 D[25] ^2 - 7.224407674150815 D[26] ^2
   - 7.558218106591681 D[27] ^2 - 6.571290816377663 D[29] ^2
   - 7.750010618206413 D[30] ^2 - 1.892481466962426 S[1] ^2
   - 1.17450889643655 S[2] ^2 - 1.760793928819965 S[3] ^2
   - 0.9196962413044751 S[5] ^2 - 0.5916225936508974 S[6] ^2
   - 1.404467681897226 S[8] ^2 - 1.429391518704122 S[9] ^2
   - 0.8065060911061852 S[14] ^2 - 0.951198784242973 S[16] ^2
   - 0.9682618620066572 S[21] ^2 - 1.893105587691069 S[22] ^2
   - 0.2101105168308943 S[23] ^2 - 1.268906706560653 S[24] ^2
   - 0.948786403695359 S[25] ^2 - 1.64471597238764 S[30] ^2 ] / 2 
Subject To
 R0: Q[1] + Q[2] + Q[4] + Q[5] + Q[6] + Q[7] + Q[10] + Q[11] + Q[12]
   + Q[13] + Q[14] + Q[15] + Q[16] + Q[17] + Q[20] + Q[22] + Q[23] + Q[24]
   + Q[25] + Q[26] + Q[27] + Q[29] <= 1925
 R1: - 161 x[1] + Q[1] <= 0
 R2: - 151 x[2] + Q[2] <= 0
 R3: - 127 x[4] + Q[4] <= 0
 R4: - 173 x[5] + Q[5] <= 0
 R5: - 115 x[6] + Q[6] <= 0
 R6: - 137 x[7] + Q[7] <= 0
 R7: - 146 x[10] + Q[10] <= 0
 R8: - 144 x[11] + Q[11] <= 0
 R9: - 116 x[12] + Q[12] <= 0
 R10: - 152 x[13] + Q[13] <= 0
 R11: - 149 x[14] + Q[14] <= 0
 R12: - 154 x[15] + Q[15] <= 0
 R13: - 107 x[16] + Q[16] <= 0
 R14: - 142 x[17] + Q[17] <= 0
 R15: - 101 x[20] + Q[20] <= 0
 R16: - 124 x[22] + Q[22] <= 0
 R17: - 153 x[23] + Q[23] <= 0
 R18: - 164 x[24] + Q[24] <= 0
 R19: - 139 x[25] + Q[25] <= 0
 R20: - 138 x[26] + Q[26] <= 0
 R21: - 199 x[27] + Q[27] <= 0
 R22: - 174 x[29] + Q[29] <= 0
 node[11]: - Q[11] + f[11,3] - f[17,11] + f[11,8] = 0
 node[20]: - Q[20] + f[20,14] - f[3,20] = 0
 node[13]: - Q[13] + f[13,5] - f[23,13] - f[7,13] + f[13,7] - f[28,13]
   + f[13,23] - f[15,13] = 0
 node[15]: - Q[15] + f[15,1] - f[24,15] - f[12,15] - f[16,15] + f[15,13]
   = 0
 node[16]: - Q[16] + f[16,2] - f[29,16] + f[16,25] + f[16,15] - S[16] = 0
 node[24]: - Q[24] + f[24,15] + f[24,1] - S[24] = 0
 node[2]: - Q[2] + f[2,1] - f[3,2] - f[5,2] - f[9,2] - f[16,2] - f[22,2]
   + f[2,5] + f[2,17] - S[2] = 0
 node[23]: - Q[23] + f[23,13] - f[21,23] - f[13,23] - f[12,23] - S[23] = 0
 node[4]: - Q[4] + f[4,1] + D[4] = 0
 node[7]: - Q[7] + f[7,6] - f[26,7] + f[7,13] - f[13,7] + f[7,1] + D[7]
   = 0
 node[10]: - Q[10] + f[10,5] - f[22,10] - f[25,10] + D[10] = 0
 node[12]: - Q[12] + f[12,5] + f[12,15] - f[17,12] + f[12,23] + D[12] = 0
 node[17]: - Q[17] + f[17,11] - f[18,17] - f[19,17] - f[6,17] - f[2,17]
   + f[17,12] + D[17] = 0
 node[26]: - Q[26] + f[26,7] + D[26] = 0
 node[27]: - Q[27] + f[27,19] - f[30,27] - f[9,27] + D[27] = 0
 node[29]: - Q[29] + f[29,16] + D[29] = 0
 node[1]: - Q[1] - f[2,1] - f[4,1] - f[8,1] - f[14,1] - f[15,1] - f[24,1]
   - f[7,1] + D[1] - S[1] = 0
 node[5]: - Q[5] + f[5,2] - f[10,5] - f[12,5] - f[13,5] - f[14,5] - f[2,5]
   - f[22,5] + D[5] - S[5] = 0
 node[6]: - Q[6] + f[6,3] - f[7,6] + f[6,17] + D[6] - S[6] = 0
 node[14]: - Q[14] + f[14,1] - f[20,14] + f[14,5] + f[14,30] + D[14]
   - S[14] = 0
 node[22]: - Q[22] + f[22,10] + f[22,2] + f[22,5] + D[22] - S[22] = 0
 node[25]: - Q[25] + f[25,10] - f[16,25] + D[25] - S[25] = 0
 node[18]: f[18,17] = 0
 node[19]: f[19,17] - f[21,19] - f[27,19] - f[9,19] = 0
 node[28]: f[28,9] - f[30,28] + f[28,13] = 0
 node[8]: f[8,1] - f[11,8] - S[8] = 0
 node[9]: f[9,2] - f[28,9] + f[9,27] + f[9,19] - S[9] = 0
 node[3]: f[3,2] - f[6,3] - f[11,3] - f[30,3] + f[3,20] - S[3] = 0
 node[21]: f[21,19] + f[21,23] - S[21] = 0
 node[30]: f[30,3] + f[30,27] + f[30,28] - f[14,30] + D[30] - S[30] = 0
 Cost_Flow[2,1]: - pi[1] + pi[2] + 0.7426195450154158 f[2,1] - mu_f[2,1]
   = -0.5569380415863143
 Cost_Flow[3,2]: - pi[2] + pi[3] + 0.5793101842607831 f[3,2] - mu_f[3,2]
   = -1.668549004521144
 Cost_Flow[4,1]: - pi[1] + pi[4] + 1.851526687529605 f[4,1] - mu_f[4,1]
   = -1.289775182139923
 Cost_Flow[5,2]: - pi[2] + pi[5] + 0.0494896075894569 f[5,2] - mu_f[5,2]
   = -2.894888761528288
 Cost_Flow[6,3]: - pi[3] + pi[6] + 1.130980311326911 f[6,3] - mu_f[6,3]
   = -1.385233573883955
 Cost_Flow[7,6]: - pi[6] + pi[7] + 1.264868099421924 f[7,6] - mu_f[7,6]
   = -2.852869954660225
 Cost_Flow[8,1]: - pi[1] + pi[8] + 1.380283408515169 f[8,1] - mu_f[8,1]
   = -0.5606335780701303
 Cost_Flow[9,2]: - pi[2] + pi[9] + 0.6347569909303741 f[9,2] - mu_f[9,2]
   = -2.555281352827863
 Cost_Flow[10,5]: - pi[5] + pi[10] + 1.97364909219056 f[10,5] - mu_f[10,5]
   = -1.931465577173097
 Cost_Flow[11,3]: - pi[3] + pi[11] + 1.203048123934097 f[11,3] - mu_f[11,3]
   = -2.584569640616558
 Cost_Flow[12,5]: - pi[5] + pi[12] + 1.406767598512779 f[12,5] - mu_f[12,5]
   = -2.119205521569659
 Cost_Flow[13,5]: - pi[5] + pi[13] + 0.1282086003159795 f[13,5]
   - mu_f[13,5] = -1.870197507598803
 Cost_Flow[14,1]: - pi[1] + pi[14] + 0.7650627897756359 f[14,1]
   - mu_f[14,1] = -0.5477339875371416
 Cost_Flow[15,1]: - pi[1] + pi[15] + 0.4836956630162017 f[15,1]
   - mu_f[15,1] = -0.271894619855671
 Cost_Flow[16,2]: - pi[2] + pi[16] + 1.759531977405584 f[16,2] - mu_f[16,2]
   = -0.1869222262078416
 Cost_Flow[17,11]: - pi[11] + pi[17] + 0.7179935383271399 f[17,11]
   - mu_f[17,11] = -0.4419576083843072
 Cost_Flow[18,17]: - pi[17] + pi[18] + 0.4706287142311658 f[18,17]
   - mu_f[18,17] = -0.6874147421354123
 Cost_Flow[19,17]: - pi[17] + pi[19] + 1.690111988222307 f[19,17]
   - mu_f[19,17] = -0.7187925269939575
 Cost_Flow[20,14]: - pi[14] + pi[20] + 0.3670858944771647 f[20,14]
   - mu_f[20,14] = -0.6464468837593789
 Cost_Flow[21,19]: - pi[19] + pi[21] + 0.788750490233681 f[21,19]
   - mu_f[21,19] = -1.343485014686038
 Cost_Flow[22,10]: - pi[10] + pi[22] + 1.826307762931751 f[22,10]
   - mu_f[22,10] = -1.949373649849167
 Cost_Flow[23,13]: - pi[13] + pi[23] + 0.0491666655358587 f[23,13]
   - mu_f[23,13] = -2.602986676572123
 Cost_Flow[24,15]: - pi[15] + pi[24] + 0.3090972784693953 f[24,15]
   - mu_f[24,15] = -2.70958568575119
 Cost_Flow[25,10]: - pi[10] + pi[25] + 0.9967459702801331 f[25,10]
   - mu_f[25,10] = -0.534785313908701
 Cost_Flow[26,7]: - pi[7] + pi[26] + 0.9074005849533127 f[26,7]
   - mu_f[26,7] = -2.889480157277887
 Cost_Flow[27,19]: - pi[19] + pi[27] + 1.946525320227449 f[27,19]
   - mu_f[27,19] = -1.940827682077964
 Cost_Flow[28,9]: - pi[9] + pi[28] + 1.787778718456176 f[28,9] - mu_f[28,9]
   = -0.9213822668776203
 Cost_Flow[29,16]: - pi[16] + pi[29] + 1.29522544542812 f[29,16]
   - mu_f[29,16] = -2.303225870380107
 Cost_Flow[30,3]: - pi[3] + pi[30] + 0.0622073061319039 f[30,3]
   - mu_f[30,3] = -0.7748656571748366
 Cost_Flow[7,13]: pi[7] - pi[13] + 1.400059193666771 f[7,13] - mu_f[7,13]
   = -1.117058524897847
 Cost_Flow[6,17]: pi[6] - pi[17] + 1.445910518688781 f[6,17] - mu_f[6,17]
   = -2.072829699554469
 Cost_Flow[12,15]: pi[12] - pi[15] + 1.35152803580077 f[12,15]
   - mu_f[12,15] = -1.725859462220926
 Cost_Flow[21,23]: pi[21] - pi[23] + 1.519897154798856 f[21,23]
   - mu_f[21,23] = -2.168965342595241
 Cost_Flow[30,27]: - pi[27] + pi[30] + 1.622061982081694 f[30,27]
   - mu_f[30,27] = -0.5005424592603068
 Cost_Flow[24,1]: - pi[1] + pi[24] + 0.2503157649707766 f[24,1]
   - mu_f[24,1] = -0.0153143365084074
 Cost_Flow[3,20]: pi[3] - pi[20] + 1.211040354346661 f[3,20] - mu_f[3,20]
   = -2.322638007927889
 Cost_Flow[16,25]: pi[16] - pi[25] + 1.331636421031876 f[16,25]
   - mu_f[16,25] = -2.0890540611622
 Cost_Flow[13,7]: - pi[7] + pi[13] + 0.2025262121999232 f[13,7]
   - mu_f[13,7] = -1.08256602804279
 Cost_Flow[22,2]: - pi[2] + pi[22] + 1.598721405606735 f[22,2] - mu_f[22,2]
   = -2.617112368341398
 Cost_Flow[14,5]: - pi[5] + pi[14] + 1.888670947487658 f[14,5] - mu_f[14,5]
   = -2.792058594558643
 Cost_Flow[30,28]: - pi[28] + pi[30] + 0.8525667281723615 f[30,28]
   - mu_f[30,28] = -1.10963218676
 Cost_Flow[28,13]: - pi[13] + pi[28] + 0.8430414447570638 f[28,13]
   - mu_f[28,13] = -2.807613377888384
 Cost_Flow[2,5]: pi[2] - pi[5] + 1.622457932066482 f[2,5] - mu_f[2,5]
   = -2.513980723216157
 Cost_Flow[9,27]: pi[9] - pi[27] + 0.5279077841698163 f[9,27] - mu_f[9,27]
   = -1.353111526604287
 Cost_Flow[2,17]: pi[2] - pi[17] + 0.0476028590278073 f[2,17] - mu_f[2,17]
   = -2.771201452887653
 Cost_Flow[7,1]: - pi[1] + pi[7] + 1.869565224800964 f[7,1] - mu_f[7,1]
   = -2.990899431735659
 Cost_Flow[9,19]: pi[9] - pi[19] + 0.8375933785688436 f[9,19] - mu_f[9,19]
   = -1.144906821450098
 Cost_Flow[17,12]: - pi[12] + pi[17] + 1.342217914793182 f[17,12]
   - mu_f[17,12] = -0.5591221427780355
 Cost_Flow[16,15]: - pi[15] + pi[16] + 1.079982548705699 f[16,15]
   - mu_f[16,15] = -0.4733769574189216
 Cost_Flow[22,5]: - pi[5] + pi[22] + 0.1089190921556844 f[22,5]
   - mu_f[22,5] = -1.016468276130991
 Cost_Flow[11,8]: - pi[8] + pi[11] + 1.464221547100572 f[11,8] - mu_f[11,8]
   = -2.909342921181914
 Cost_Flow[13,23]: pi[13] - pi[23] + 0.4486404746794832 f[13,23]
   - mu_f[13,23] = -0.6089979593573277
 Cost_Flow[14,30]: pi[14] - pi[30] + 0.0544807112541332 f[14,30]
   - mu_f[14,30] = -1.871430600056099
 Cost_Flow[15,13]: - pi[13] + pi[15] + 0.1250065533091584 f[15,13]
   - mu_f[15,13] = -0.8748879780599201
 Cost_Flow[12,23]: pi[12] - pi[23] + 1.598786792038052 f[12,23]
   - mu_f[12,23] = -2.62811022283311
 Cost_Demand[1]: pi[1] + 3.094427194871425 D[1] - mu_D[1] = 1347
 Cost_Demand[4]: pi[4] + 3.628748245656687 D[4] - mu_D[4] = 1387
 Cost_Demand[5]: pi[5] + 3.963065871467554 D[5] - mu_D[5] = 1343
 Cost_Demand[6]: pi[6] + 3.184922773077075 D[6] - mu_D[6] = 1417
 Cost_Demand[7]: pi[7] + 3.204981083967576 D[7] - mu_D[7] = 1488
 Cost_Demand[10]: pi[10] + 3.496875107555053 D[10] - mu_D[10] = 1313
 Cost_Demand[12]: pi[12] + 3.971088493989098 D[12] - mu_D[12] = 1456
 Cost_Demand[14]: pi[14] + 3.627952405751559 D[14] - mu_D[14] = 1397
 Cost_Demand[17]: pi[17] + 3.739452472743685 D[17] - mu_D[17] = 1454
 Cost_Demand[22]: pi[22] + 3.546313289832923 D[22] - mu_D[22] = 1305
 Cost_Demand[25]: pi[25] + 3.75656793304382 D[25] - mu_D[25] = 1474
 Cost_Demand[26]: pi[26] + 3.612203837075407 D[26] - mu_D[26] = 1345
 Cost_Demand[27]: pi[27] + 3.779109053295841 D[27] - mu_D[27] = 1340
 Cost_Demand[29]: pi[29] + 3.285645408188831 D[29] - mu_D[29] = 1374
 Cost_Demand[30]: pi[30] + 3.875005309103206 D[30] - mu_D[30] = 1348
 Cost_Supply[1]: - pi[1] + 0.9462407334812132 S[1] - mu_S[1]
   = -1.67424372187271
 Cost_Supply[2]: - pi[2] + 0.5872544482182749 S[2] - mu_S[2]
   = -1.295113953184072
 Cost_Supply[3]: - pi[3] + 0.8803969644099826 S[3] - mu_S[3]
   = -1.550736458975634
 Cost_Supply[5]: - pi[5] + 0.4598481206522376 S[5] - mu_S[5]
   = -1.087754352638233
 Cost_Supply[6]: - pi[6] + 0.2958112968254487 S[6] - mu_S[6]
   = -1.908836289838496
 Cost_Supply[8]: - pi[8] + 0.702233840948613 S[8] - mu_S[8]
   = -1.08292651394214
 Cost_Supply[9]: - pi[9] + 0.7146957593520608 S[9] - mu_S[9]
   = -1.755070672244746
 Cost_Supply[14]: - pi[14] + 0.4032530455530926 S[14] - mu_S[14]
   = -1.258422697555548
 Cost_Supply[16]: - pi[16] + 0.4755993921214865 S[16] - mu_S[16]
   = -1.226865779600784
 Cost_Supply[21]: - pi[21] + 0.4841309310033286 S[21] - mu_S[21]
   = -1.973823112496012
 Cost_Supply[22]: - pi[22] + 0.9465527938455344 S[22] - mu_S[22]
   = -1.16248119714228
 Cost_Supply[23]: - pi[23] + 0.1050552584154472 S[23] - mu_S[23]
   = -1.7818647922346
 Cost_Supply[24]: - pi[24] + 0.6344533532803265 S[24] - mu_S[24]
   = -1.540244220466521
 Cost_Supply[25]: - pi[25] + 0.4743932018476795 S[25] - mu_S[25]
   = -1.298962271493988
 Cost_Supply[30]: - pi[30] + 0.8223579861938199 S[30] - mu_S[30]
   = -1.140384303468987
Bounds
Binaries
 x[1] x[2] x[4] x[5] x[6] x[7] x[10] x[11] x[12] x[13] x[14] x[15] x[16]
 x[17] x[20] x[22] x[23] x[24] x[25] x[26] x[27] x[29]
SOS
 s0:  S1 :: f[2,1]:1 mu_f[2,1]:2
 s1:  S1 :: f[3,2]:1 mu_f[3,2]:2
 s2:  S1 :: f[4,1]:1 mu_f[4,1]:2
 s3:  S1 :: f[5,2]:1 mu_f[5,2]:2
 s4:  S1 :: f[6,3]:1 mu_f[6,3]:2
 s5:  S1 :: f[7,6]:1 mu_f[7,6]:2
 s6:  S1 :: f[8,1]:1 mu_f[8,1]:2
 s7:  S1 :: f[9,2]:1 mu_f[9,2]:2
 s8:  S1 :: f[10,5]:1 mu_f[10,5]:2
 s9:  S1 :: f[11,3]:1 mu_f[11,3]:2
 s10:  S1 :: f[12,5]:1 mu_f[12,5]:2
 s11:  S1 :: f[13,5]:1 mu_f[13,5]:2
 s12:  S1 :: f[14,1]:1 mu_f[14,1]:2
 s13:  S1 :: f[15,1]:1 mu_f[15,1]:2
 s14:  S1 :: f[16,2]:1 mu_f[16,2]:2
 s15:  S1 :: f[17,11]:1 mu_f[17,11]:2
 s16:  S1 :: f[18,17]:1 mu_f[18,17]:2
 s17:  S1 :: f[19,17]:1 mu_f[19,17]:2
 s18:  S1 :: f[20,14]:1 mu_f[20,14]:2
 s19:  S1 :: f[21,19]:1 mu_f[21,19]:2
 s20:  S1 :: f[22,10]:1 mu_f[22,10]:2
 s21:  S1 :: f[23,13]:1 mu_f[23,13]:2
 s22:  S1 :: f[24,15]:1 mu_f[24,15]:2
 s23:  S1 :: f[25,10]:1 mu_f[25,10]:2
 s24:  S1 :: f[26,7]:1 mu_f[26,7]:2
 s25:  S1 :: f[27,19]:1 mu_f[27,19]:2
 s26:  S1 :: f[28,9]:1 mu_f[28,9]:2
 s27:  S1 :: f[29,16]:1 mu_f[29,16]:2
 s28:  S1 :: f[30,3]:1 mu_f[30,3]:2
 s29:  S1 :: f[7,13]:1 mu_f[7,13]:2
 s30:  S1 :: f[6,17]:1 mu_f[6,17]:2
 s31:  S1 :: f[12,15]:1 mu_f[12,15]:2
 s32:  S1 :: f[21,23]:1 mu_f[21,23]:2
 s33:  S1 :: f[30,27]:1 mu_f[30,27]:2
 s34:  S1 :: f[24,1]:1 mu_f[24,1]:2
 s35:  S1 :: f[3,20]:1 mu_f[3,20]:2
 s36:  S1 :: f[16,25]:1 mu_f[16,25]:2
 s37:  S1 :: f[13,7]:1 mu_f[13,7]:2
 s38:  S1 :: f[22,2]:1 mu_f[22,2]:2
 s39:  S1 :: f[14,5]:1 mu_f[14,5]:2
 s40:  S1 :: f[30,28]:1 mu_f[30,28]:2
 s41:  S1 :: f[28,13]:1 mu_f[28,13]:2
 s42:  S1 :: f[2,5]:1 mu_f[2,5]:2
 s43:  S1 :: f[9,27]:1 mu_f[9,27]:2
 s44:  S1 :: f[2,17]:1 mu_f[2,17]:2
 s45:  S1 :: f[7,1]:1 mu_f[7,1]:2
 s46:  S1 :: f[9,19]:1 mu_f[9,19]:2
 s47:  S1 :: f[17,12]:1 mu_f[17,12]:2
 s48:  S1 :: f[16,15]:1 mu_f[16,15]:2
 s49:  S1 :: f[22,5]:1 mu_f[22,5]:2
 s50:  S1 :: f[11,8]:1 mu_f[11,8]:2
 s51:  S1 :: f[13,23]:1 mu_f[13,23]:2
 s52:  S1 :: f[14,30]:1 mu_f[14,30]:2
 s53:  S1 :: f[15,13]:1 mu_f[15,13]:2
 s54:  S1 :: f[12,23]:1 mu_f[12,23]:2
 s55:  S1 :: D[1]:1 mu_D[1]:2
 s56:  S1 :: D[4]:1 mu_D[4]:2
 s57:  S1 :: D[5]:1 mu_D[5]:2
 s58:  S1 :: D[6]:1 mu_D[6]:2
 s59:  S1 :: D[7]:1 mu_D[7]:2
 s60:  S1 :: D[10]:1 mu_D[10]:2
 s61:  S1 :: D[12]:1 mu_D[12]:2
 s62:  S1 :: D[14]:1 mu_D[14]:2
 s63:  S1 :: D[17]:1 mu_D[17]:2
 s64:  S1 :: D[22]:1 mu_D[22]:2
 s65:  S1 :: D[25]:1 mu_D[25]:2
 s66:  S1 :: D[26]:1 mu_D[26]:2
 s67:  S1 :: D[27]:1 mu_D[27]:2
 s68:  S1 :: D[29]:1 mu_D[29]:2
 s69:  S1 :: D[30]:1 mu_D[30]:2
 s70:  S1 :: S[1]:1 mu_S[1]:2
 s71:  S1 :: S[2]:1 mu_S[2]:2
 s72:  S1 :: S[3]:1 mu_S[3]:2
 s73:  S1 :: S[5]:1 mu_S[5]:2
 s74:  S1 :: S[6]:1 mu_S[6]:2
 s75:  S1 :: S[8]:1 mu_S[8]:2
 s76:  S1 :: S[9]:1 mu_S[9]:2
 s77:  S1 :: S[14]:1 mu_S[14]:2
 s78:  S1 :: S[16]:1 mu_S[16]:2
 s79:  S1 :: S[21]:1 mu_S[21]:2
 s80:  S1 :: S[22]:1 mu_S[22]:2
 s81:  S1 :: S[23]:1 mu_S[23]:2
 s82:  S1 :: S[24]:1 mu_S[24]:2
 s83:  S1 :: S[25]:1 mu_S[25]:2
 s84:  S1 :: S[30]:1 mu_S[30]:2
End
