Medium-instances_NetworkFacilityLocation/2023-03-27_20hr-25min-09sec/Nodes30_Arcs55_LocNodes22/Formulation-2Instance-5.log

Gurobi 9.5.2 (win64) logging started Mon Mar 27 20:27:46 2023

Set parameter LogFile to value "2023-03-27_20hr-25min-09sec/Nodes30_Arcs55_LocNodes22/Formulation-2Instance-5.log"
Set parameter TimeLimit to value 600
Set parameter IntFeasTol to value 1e-09
Set parameter DualReductions to value 0
Set parameter NonConvex to value 2
Gurobi Optimizer version 9.5.2 build v9.5.2rc0 (win64)
Thread count: 4 physical cores, 8 logical processors, using up to 8 threads
Optimize a model with 138 rows, 244 columns and 538 nonzeros
Model fingerprint: 0x10d96eca
Model has 85 quadratic objective terms
Model has 85 SOS constraints
Variable types: 222 continuous, 22 integer (22 binary)
Coefficient statistics:
  Matrix range     [5e-02, 2e+02]
  Objective range  [2e-02, 1e+03]
  QObjective range [1e-01, 8e+00]
  Bounds range     [1e+00, 1e+00]
  RHS range        [2e-02, 2e+03]
Presolve removed 7 rows and 7 columns
Presolve time: 0.00s
Presolved: 131 rows, 237 columns, 526 nonzeros
Presolved model has 84 SOS constraint(s)
Presolved model has 84 quadratic objective terms
Variable types: 215 continuous, 22 integer (22 binary)

Root relaxation: objective 5.999040e+05, 302 iterations, 0.00 seconds (0.00 work units)

    Nodes    |    Current Node    |     Objective Bounds      |     Work
 Expl Unexpl |  Obj  Depth IntInf | Incumbent    BestBd   Gap | It/Node Time

     0     0 599904.013    0    6          - 599904.013      -     -    0s
H    0     0                    595555.33490 599904.013  0.73%     -    0s
H    0     0                    595753.04382 599904.013  0.70%     -    0s
     0     0 599895.733    0    6 595753.044 599895.733  0.70%     -    0s
H    0     0                    599313.23346 599814.377  0.08%     -    0s
H    0     0                    599448.86658 599814.377  0.06%     -    0s

Cutting planes:
  MIR: 2

Explored 1 nodes (305 simplex iterations) in 0.21 seconds (0.03 work units)
Thread count was 8 (of 8 available processors)

Solution count 4: 599449 599313 595753 595555 

Optimal solution found (tolerance 1.00e-04)
Best objective 5.994488665756e+05, best bound 5.994503058513e+05, gap 0.0002%

User-callback calls 280, time in user-callback 0.01 sec
